%chk=C:\G09W\Midterm1\2BAopt.chk
# opt pm6 geom=connectivity

Title Card Required

0 1
 C                 -2.01349321   -2.81441208    0.00167800
 C                 -0.61833321   -2.81441208    0.00167800
 C                  0.07920479   -1.60666108    0.00167800
 C                 -0.61844921   -0.39815208    0.00047900
 C                 -2.01327421   -0.39823008    0.00000000
 C                 -2.71087521   -1.60643608    0.00099600
 H                 -2.56325221   -3.76672908    0.00212800
 H                 -0.06882521   -3.76692508    0.00299300
 H                 -0.06824921    0.55399092    0.00042000
 H                 -2.56339621    0.55405092   -0.00095300
 H                 -3.81047921   -1.60625308    0.00081600
 C                  1.61920453   -1.60654905    0.00256586
 C                  2.38665845   -2.94169462    0.00345293
 H                  1.84805942   -3.86625456    0.00345027
 C                  3.74183489   -2.94964782    0.00423691
 O                  4.46900432   -1.71833770    0.00420851
 H                  5.41115895   -1.90257721    0.00488492
 O                  2.25263727   -0.51919743    0.00256899
 C                  4.50130909   -4.28934862    0.00507446
 H                  5.11619462   -4.35130878   -0.86841093
 H                  5.11581033   -4.35043425    0.87889182
 H                  3.79960868   -5.09713354    0.00532443

 1 2 1.5 6 1.5 7 1.0
 2 3 1.5 8 1.0
 3 4 1.5 12 1.0
 4 5 1.5 9 1.0
 5 6 1.5 10 1.0
 6 11 1.0
 7
 8
 9
 10
 11
 12 13 1.0 18 2.0
 13 14 1.0 15 2.0
 14
 15 16 1.0 19 1.0
 16 17 1.0
 17
 18
 19 20 1.0 21 1.0 22 1.0
 20
 21
 22

