%chk=C:\G09W\Midterm1\DMHDE2opt.chk
# opt hf/6-311g geom=connectivity

Title Card Required

0 1
 C                 -3.79934342    0.47446865   -2.32215678
 C                 -2.51424670    0.90722314   -1.64679789
 H                 -2.06163071    0.28256266   -0.91785881
 O                 -4.26920414    1.16661798   -3.29726773
 O                 -2.85528062    3.29758313   -1.83429354
 H                 -3.61934260    3.14229570   -2.40757424
 ?s                -0.42190719    1.81489116   -0.28654271
 C                 -4.57316100   -0.78260721   -1.87796161
 C                 -5.19887334   -0.52014299   -0.47779104
 H                 -4.45387484   -0.75568677    0.27803601
 H                 -5.44307756    0.52361200   -0.38503713
 H                 -6.05055181   -1.11447675   -0.33571083
 C                 -5.70348418   -1.07308593   -2.87907165
 H                 -5.31010153   -1.21307906   -3.83911828
 H                 -6.20729344   -1.99491500   -2.55971389
 H                 -6.42361398   -0.28745176   -2.86116127
 C                 -3.62286941   -1.97487548   -1.79098417
 H                 -2.84593729   -1.84913964   -2.53100831
 H                 -3.17029611   -2.00901230   -0.82093065
 H                 -4.15059605   -2.87408228   -1.98101639
 ?s                -0.37206902    2.57974534   -1.23072787
 C                 -2.00530940    2.15053085   -1.88843119
 C                 -0.91651840    2.64226007   -0.91666139
 H                 -0.95809729    2.06844387   -0.01449391
 H                  0.04557063    2.52488964   -1.36999225
 H                 -1.08053124    3.67510262   -0.69030759

 1 2 1.0 4 2.0 8 1.0
 2 3 1.0 22 2.0
 3
 4
 5 6 1.0 22 1.0
 6
 7
 8 9 1.0 13 1.0 17 1.0
 9 10 1.0 11 1.0 12 1.0
 10
 11
 12
 13 14 1.0 15 1.0 16 1.0
 14
 15
 16
 17 18 1.0 19 1.0 20 1.0
 18
 19
 20
 21
 22 23 1.0
 23 24 1.0 25 1.0 26 1.0
 24
 25
 26

