%chk=C:\G09W\Midterm1\E1opt.chk
# opt hf/6-311g geom=connectivity

Title Card Required

0 1
 C                 -4.57458554   -3.15355886    4.28905980
 C                 -3.59175638   -3.05683188    3.29476977
 C                 -2.99666980   -1.81910281    3.01580617
 C                 -3.38441148   -0.67810098    3.73113348
 C                 -4.36724093   -0.77482790    4.72542325
 C                 -4.96232853   -2.01255669    5.00438585
 H                 -5.02894804   -4.09859229    4.50205404
 H                 -3.29570721   -3.92801204    2.74860129
 H                 -2.93004907    0.26693247    3.51813917
 H                 -4.66329202    0.09635277    5.27158988
 H                 -5.71274207   -2.08640946    5.76354677
 C                 -1.91663591   -1.71280989    1.92318153
 C                 -1.49054309   -2.96665887    1.13711049
 H                 -1.94490689   -3.91169195    1.35010346
 O                 -1.38226960   -0.60138047    1.67268635
 O                  0.23838205   -2.75340083   -1.01792845
 H                  1.02065947   -3.30524352   -0.94643246
 C                 -0.54011327   -2.87312109    0.17560082
 C                 -0.30428637   -4.36770640   -0.11110537
 C                  0.54284650   -4.97992958    1.01988919
 H                  1.48427096   -4.47428152    1.07411095
 H                  0.02616059   -4.87250785    1.95069327
 H                  0.70670024   -6.01837521    0.82068423
 C                 -1.65923374   -5.09546156   -0.18914416
 H                 -1.49537999   -6.13390719   -0.38834912
 H                 -2.17591965   -4.98803982    0.74165992
 H                 -2.24782606   -4.67008571   -0.97496506
 C                  0.43935503   -4.52231338   -1.45076733
 H                  1.38077950   -4.01666532   -1.39654557
 H                  0.60320878   -5.56075901   -1.64997228
 H                 -0.14923728   -4.09693754   -2.23658822

 1 2 1.5 6 1.5 7 1.0
 2 3 1.5 8 1.0
 3 4 1.5 12 1.0
 4 5 1.5 9 1.0
 5 6 1.5 10 1.0
 6 11 1.0
 7
 8
 9
 10
 11
 12 13 1.0 15 2.0
 13 14 1.0 18 2.0
 14
 15
 16 17 1.0 18 1.0
 17
 18 19 1.0
 19 20 1.0 24 1.0 28 1.0
 20 21 1.0 22 1.0 23 1.0
 21
 22
 23
 24 25 1.0 26 1.0 27 1.0
 25
 26
 27
 28 29 1.0 30 1.0 31 1.0
 29
 30
 31

