%chk=C:\G09W\Midterm1\E8energy.chk
# hf/6-311g geom=connectivity

Title Card Required

0 1
 C                 -4.54084167    0.92110437   -1.74422095
 C                 -3.78193298   -0.24898900   -1.88155650
 C                 -2.60066856   -0.23356965   -2.63541229
 C                 -2.17831215    0.95194338   -3.25193146
 C                 -2.93722106    2.12203665   -3.11459623
 C                 -4.11848624    2.10661694   -2.36074163
 H                 -5.44276379    0.90933112   -1.16863611
 H                 -1.27639009    0.96371660   -3.82751639
 H                 -2.61474383    3.02720157   -3.58532428
 H                 -4.69793109    3.00000864   -2.25588480
 H                 -2.02122544   -1.12696214   -2.74027185
 C                 -4.24606111   -1.55175067   -1.20406325
 O                 -3.80350662   -2.81431637   -1.70901213
 H                 -4.38505503   -3.50851897   -1.39044628
 C                 -5.07245985   -1.50576390   -0.13097547
 H                 -5.93727706   -0.92340950   -0.37150521
 C                 -5.50459321   -2.93507207    0.24577238
 O                 -6.59161972   -3.12997785    0.84905976
 C                 -4.60335610   -4.12996032   -0.11701370
 C                 -4.93518159   -4.60903869   -1.54248758
 H                 -4.22062047   -5.34504414   -1.84678741
 H                 -5.91575478   -5.03705935   -1.55569832
 H                 -4.89972346   -3.77787852   -2.21540325
 C                 -4.84693412   -5.27801308    0.88010445
 H                 -3.91831568   -5.76140351    1.10124124
 H                 -5.26757854   -4.88415587    1.78167795
 H                 -5.52414738   -5.98615257    0.45019672
 C                 -3.12671590   -3.69771695   -0.05144396
 H                 -3.06243685   -2.70717761    0.34805575
 H                 -2.58528382   -4.37219671    0.57849918
 H                 -2.70645018   -3.71345173   -1.03532867

 1 2 1.5 6 1.5 7 1.0
 2 3 1.5 12 1.0
 3 4 1.5 11 1.0
 4 5 1.5 8 1.0
 5 6 1.5 9 1.0
 6 10 1.0
 7
 8
 9
 10
 11
 12 13 1.0 15 2.0
 13 14 1.0
 14
 15 16 1.0 17 1.0
 16
 17 18 2.0 19 1.0
 18
 19 20 1.0 24 1.0 28 1.0
 20 21 1.0 22 1.0 23 1.0
 21
 22
 23
 24 25 1.0 26 1.0 27 1.0
 25
 26
 27
 28 29 1.0 30 1.0 31 1.0
 29
 30
 31

