%chk=C:\G09W\Midterm1\K1opt.chk
# opt hf/6-311g geom=connectivity

Title Card Required

0 1
 C                 -5.37632485   -2.32768643    0.00167800
 C                 -3.98116485   -2.32768643    0.00167800
 C                 -3.28362685   -1.11993543    0.00167800
 C                 -3.98128085    0.08857357    0.00047900
 C                 -5.37610585    0.08849557    0.00000000
 C                 -6.07370685   -1.11971043    0.00099600
 H                 -5.92608385   -3.28000343    0.00212800
 H                 -3.43165685   -3.28019943    0.00299300
 H                 -3.43108085    1.04071657    0.00042000
 H                 -5.92622785    1.04077657   -0.00095300
 H                 -7.17331085   -1.11952743    0.00081600
 C                 -1.74362711   -1.11982339    0.00256586
 O                 -1.11019437   -0.03247178    0.00256899
 C                 -0.97617319   -2.45496897    0.00345293
 H                 -1.23612976   -3.01520434    0.87721428
 H                 -1.23534156   -3.01591218   -0.87008841
 C                  0.53843226   -2.17645504    0.00402333
 O                  0.96485490   -0.99250647    0.00373607
 C                  1.53461095   -3.35086006    0.00494846
 C                  2.97391043   -2.80312217    0.00540409
 H                  3.12744313   -2.20449889    0.87889015
 H                  3.66606014   -3.61910523    0.00605085
 H                  3.12826034   -2.20519139   -0.86841218
 C                  1.31246450   -4.21143770    1.26258795
 H                  0.43568556   -4.81114397    1.13409249
 H                  2.16000073   -4.84669540    1.41434430
 H                  1.18735875   -3.57440727    2.11314117
 C                  1.31363624   -4.21242481   -1.25222152
 H                  1.24085460   -3.57824472   -2.11095224
 H                  2.13766806   -4.88408088   -1.37366983
 H                  0.40885172   -4.77356825   -1.14553034

 1 2 1.5 6 1.5 7 1.0
 2 3 1.5 8 1.0
 3 4 1.5 12 1.0
 4 5 1.5 9 1.0
 5 6 1.5 10 1.0
 6 11 1.0
 7
 8
 9
 10
 11
 12 13 2.0 14 1.0
 13
 14 15 1.0 16 1.0 17 1.0
 15
 16
 17 18 2.0 19 1.0
 18
 19 20 1.0 24 1.0 28 1.0
 20 21 1.0 22 1.0 23 1.0
 21
 22
 23
 24 25 1.0 26 1.0 27 1.0
 25
 26
 27
 28 29 1.0 30 1.0 31 1.0
 29
 30
 31

